NAME          BLANK   
ROWS
 N  OBJROW
 L  R0000000
COLUMNS
    C0000000  OBJROW     -415.         R0000000  419.        
    C0000001  OBJROW     -635.         R0000000  874.        
    C0000002  OBJROW     -823.         R0000000  72.         
    C0000003  OBJROW     -341.         R0000000  969.        
    C0000004  OBJROW     -838.         R0000000  912.        
    C0000005  OBJROW     -210.         R0000000  16.         
    C0000006  OBJROW     -193.         R0000000  965.        
    C0000007  OBJROW     -631.         R0000000  502.        
    C0000008  OBJROW     -674.         R0000000  671.        
    C0000009  OBJROW     -362.         R0000000  690.        
    C0000010  OBJROW     -33.          R0000000  938.        
    C0000011  OBJROW     -905.         R0000000  994.        
    C0000012  OBJROW     -808.         R0000000  207.        
    C0000013  OBJROW     -850.         R0000000  20.         
    C0000014  OBJROW     -376.         R0000000  532.        
RHS
    RHS       R0000000  16386.      
BOUNDS
 BV BOUND     C0000000  1.          
 BV BOUND     C0000001  1.          
 BV BOUND     C0000002  1.          
 BV BOUND     C0000003  1.          
 BV BOUND     C0000004  1.          
 BV BOUND     C0000005  1.          
 BV BOUND     C0000006  1.          
 BV BOUND     C0000007  1.          
 BV BOUND     C0000008  1.          
 BV BOUND     C0000009  1.          
 BV BOUND     C0000010  1.          
 BV BOUND     C0000011  1.          
 BV BOUND     C0000012  1.          
 BV BOUND     C0000013  1.          
 BV BOUND     C0000014  1.          
ENDATA
